n = 10; 

m=8; 

											
50	64	65	18	7	68	59	83	5	7
71	60	46	5	5	49	31	37	56	5
45	28	89	13	10	57	83	6 	17	7 
17	82	8	4	38	56	53	12	4	38
74	72	30	86	70	45	83	63 	34	70
62	82	50	57	46	78	91	12	19	46
17	37	14	14	11	76	3	49	46	11
45	28	89	13	10	57	83	6 	17	7 
 
	 












 
 


 

 
